networks/zoo_64_696/zoo_64_696.txt
Number of groups: 55
Flow 17: {1 8} {8 21} {21 55} 
Flow 29: {2 6} {6 40} 
Flow 30: {2 1} {1 7} {7 41} 
Flow 34: {2 8} {8 9} {9 20} {20 11} {11 45} 
Flow 53: {3 1} {1 2} {2 36} 
Flow 97: {5 4} {4 7} 
Flow 108: {4 8} {8 23} 
Flow 115: {24 30} 
Flow 116: {6 1} {1 35} 
Flow 117: {6 2} 
Flow 125: {6 8} {8 24} {24 12} {12 46} 
Flow 143: {7 4} 
Flow 144: {7 1} {1 6} 
Flow 223: {10 17} {17 18} {18 52} 
Flow 251: {11 20} {20 9} {9 23} {23 57} 
Flow 275: {12 20} {20 19} {19 53} 
Flow 293: {24 9} 
Flow 306: {13 12} {12 24} {24 26} 
Flow 309: {24 21} 
Flow 324: {15 16} 
Flow 327: {14 12} {12 13} {13 47} 
Flow 332: {15 11} {11 19} 
Flow 333: {15 20} {20 54} 
Flow 347: {16 15} {15 24} {24 8} {8 6} 
Flow 357: {16 14} {14 18} 
Flow 381: {17 14} {14 15} {15 49} 
Flow 393: {17 10} {10 16} {16 20} {20 30} {30 64} 
Flow 397: {18 21} {21 8} {8 4} {4 38} 
Flow 407: {18 14} {14 16} {16 50} 
Flow 416: {21 23} 
Flow 433: {19 11} {11 15} {15 14} {14 17} {17 51} 
Flow 443: {19 20} {20 21} {21 29} {29 63} 
Flow 451: {9 8} {8 42} 
Flow 462: {9 24} 
Flow 490: {21 9} {9 26} 
Flow 496: {8 2} 
Flow 499: {22 24} 
Flow 506: {22 20} {20 12} {12 14} {14 48} 
Flow 541: {23 26} 
Flow 549: {23 8} {8 1} {1 3} {3 37} 
Flow 581: {26 20} {20 16} {16 10} {10 44} 
Flow 592: {26 24} {24 58} 
Flow 594: {26 23} {23 25} {25 27} 
Flow 596: {26 9} {9 21} 
Flow 610: {24 15} 
Flow 612: {23 21} {21 18} {18 17} 
Flow 618: {27 25} {25 59} 
Flow 620: {27 28} {28 62} 
Flow 630: {28 25} {25 23} {23 9} {9 43} 
Flow 645: {28 27} {27 61} 
Flow 659: {21 20} {20 15} 
Flow 666: {29 21} {21 24} 
Flow 670: {25 28} 
Flow 677: {30 24} 
Flow 693: {30 20} {20 26} {26 60} 
Time taken running everything: 16 seconds
